g3 0 1 0	# problem d5n8R4R6d005d05
 8 9 1 0 4	# vars, constraints, objectives, ranges, eqns
 4 1	# nonlinear constraints, objectives
 0 0	# network constraints: nonlinear, linear
 8 8 8	# nonlinear vars in constraints, objectives, both
 0 0 0 1	# linear network variables; functions; arith, flags
 0 0 0 0 0	# discrete variables: binary, integer, nonlinear (b,c,o)
 56 8	# nonzeros in Jacobian, gradients
 0 0	# max name lengths: constraints, variables
 0 0 0 0 0	# common exprs: b,c,o,c1,o1
b
0 0.12 2.55
0 0.19 2.35
0 0.59 2.3
0 0.77 2.29
0 0.36 2.4
0 0.81 2.39
0 0.56 2.81
0 0.85 2.38
r
2 34.375
2 124.239
2 547.466
2 1605.09
4 -6.589
4 21.176
4 17.297
4 26.189
2 51.567
C0
o1
o2
o2
n1.96
v3
v6
o2
o2
n7.72
v1
v2
C1
o54
6
o2
o2
n8.13
v1
v2
o2
o2
n4.84
v3
v6
o2
o2
o2
n7.96
v0
v0
v7
o2
o2
o2
n0.31
v2
v2
v2
o16
o2
o2
o2
n4.81
v2
v4
v7
o2
o2
o2
n7.46
v6
v7
v7
C2
o54
26
o2
o2
n5.75
v1
v2
o2
o2
n4.54
v3
v6
o2
o2
o2
n0.93
v0
v0
v7
o16
o2
o2
o2
n5.06
v2
v2
v2
o2
o2
o2
n3.51
v2
v4
v7
o2
o2
o2
n5.55
v6
v7
v7
o2
o2
o2
o2
n7.13
v0
v0
v3
v5
o2
o2
o2
o2
n8.18
v0
v0
v4
v5
o16
o2
o2
o2
o2
n7.21
v0
v0
v6
v6
o2
o2
o2
o2
n4.71
v0
v1
v1
v3
o2
o2
o2
o2
n4.84
v0
v1
v1
v5
o2
o2
o2
o2
n3.53
v0
v1
v2
v2
o2
o2
o2
o2
n3.13
v0
v1
v2
v5
o2
o2
o2
o2
n9.49
v0
v1
v3
v3
o2
o2
o2
o2
n7.66
v0
v2
v3
v6
o2
o2
o2
o2
n0.38
v0
v3
v3
v6
o16
o2
o2
o2
o2
n7.54
v0
v3
v6
v6
o2
o2
o2
o2
n9.26
v0
v7
v7
v7
o2
o2
o2
o2
n8.75
v1
v1
v1
v5
o2
o2
o2
o2
n6.6
v1
v1
v3
v3
o2
o2
o2
o2
n6.17
v1
v1
v4
v7
o2
o2
o2
o2
n1.42
v2
v4
v5
v5
o2
o2
o2
o2
n6.01
v2
v6
v6
v6
o2
o2
o2
o2
n5.35
v3
v7
v7
v7
o2
o2
o2
o2
n5.08
v4
v6
v6
v6
o2
o2
o2
o2
n8.79
v6
v7
v7
v7
C3
o54
64
o2
o2
n9.43
v1
v2
o2
o2
n5.07
v3
v6
o2
o2
o2
n1.3
v0
v0
v7
o16
o2
o2
o2
n1.38
v2
v2
v2
o2
o2
o2
n7.5
v2
v4
v7
o2
o2
o2
n8.39
v6
v7
v7
o2
o2
o2
o2
n7.22
v0
v0
v3
v5
o2
o2
o2
o2
n4.27
v0
v0
v4
v5
o2
o2
o2
o2
n2
v0
v0
v6
v6
o2
o2
o2
o2
n3.81
v0
v1
v1
v3
o2
o2
o2
o2
n4.83
v0
v1
v1
v5
o2
o2
o2
o2
n3.48
v0
v1
v2
v2
o2
o2
o2
o2
n8.48
v0
v1
v2
v5
o2
o2
o2
o2
n8.27
v0
v1
v3
v3
o2
o2
o2
o2
n9.36
v0
v2
v3
v6
o2
o2
o2
o2
n9.31
v0
v3
v3
v6
o2
o2
o2
o2
n8.63
v0
v3
v6
v6
o2
o2
o2
o2
n6.36
v0
v7
v7
v7
o2
o2
o2
o2
n7.11
v1
v1
v1
v5
o2
o2
o2
o2
n4.2
v1
v1
v3
v3
o2
o2
o2
o2
n5.46
v1
v1
v4
v7
o2
o2
o2
o2
n7.04
v2
v4
v5
v5
o2
o2
o2
o2
n6.28
v2
v6
v6
v6
o2
o2
o2
o2
n10
v3
v7
v7
v7
o16
o2
o2
o2
o2
n9.71
v4
v6
v6
v6
o2
o2
o2
o2
n1.64
v6
v7
v7
v7
o16
o2
o2
o2
o2
o2
n8.99
v0
v0
v0
v0
v5
o2
o2
o2
o2
o2
n6.72
v0
v0
v0
v4
v7
o16
o2
o2
o2
o2
o2
n7.63
v0
v0
v0
v5
v7
o2
o2
o2
o2
o2
n3.16
v0
v0
v1
v6
v6
o2
o2
o2
o2
o2
n4.68
v0
v0
v5
v6
v7
o2
o2
o2
o2
o2
n2.33
v0
v1
v1
v2
v5
o2
o2
o2
o2
o2
n9.83
v0
v1
v2
v2
v2
o2
o2
o2
o2
o2
n6.71
v0
v1
v2
v3
v4
o2
o2
o2
o2
o2
n4.61
v0
v1
v2
v5
v6
o2
o2
o2
o2
o2
n3.93
v0
v1
v3
v4
v6
o2
o2
o2
o2
o2
n1.56
v0
v1
v4
v5
v5
o2
o2
o2
o2
o2
n1.35
v0
v2
v3
v3
v7
o2
o2
o2
o2
o2
n7.71
v0
v2
v4
v7
v7
o2
o2
o2
o2
o2
n0.13
v0
v3
v5
v5
v6
o2
o2
o2
o2
o2
n4.08
v0
v3
v5
v6
v7
o2
o2
o2
o2
o2
n3.01
v0
v5
v6
v6
v6
o2
o2
o2
o2
o2
n7.65
v1
v1
v1
v1
v4
o2
o2
o2
o2
o2
n4.67
v1
v1
v2
v2
v4
o2
o2
o2
o2
o2
n7.43
v1
v1
v2
v5
v7
o2
o2
o2
o2
o2
n8.85
v1
v1
v5
v7
v7
o16
o2
o2
o2
o2
o2
n1.17
v1
v1
v7
v7
v7
o2
o2
o2
o2
o2
n1.31
v1
v2
v3
v4
v7
o2
o2
o2
o2
o2
n4.3
v1
v3
v5
v5
v7
o2
o2
o2
o2
o2
n2.65
v1
v3
v5
v7
v7
o2
o2
o2
o2
o2
n7.61
v1
v4
v5
v5
v5
o2
o2
o2
o2
o2
n9.98
v2
v2
v2
v3
v3
o2
o2
o2
o2
o2
n5.29
v2
v2
v3
v4
v6
o16
o2
o2
o2
o2
o2
n1.67
v2
v3
v3
v5
v6
o2
o2
o2
o2
o2
n9.79
v2
v3
v4
v4
v6
o2
o2
o2
o2
o2
n4.12
v2
v3
v4
v6
v7
o2
o2
o2
o2
o2
n5.3
v2
v4
v5
v5
v6
o2
o2
o2
o2
o2
n4.61
v2
v5
v5
v5
v5
o16
o2
o2
o2
o2
o2
n6.03
v3
v3
v3
v3
v7
o2
o2
o2
o2
o2
n9.37
v3
v3
v3
v5
v5
o2
o2
o2
o2
o2
n1.28
v3
v4
v6
v6
v7
o16
o2
o2
o2
o2
o2
n0.86
v4
v5
v6
v6
v7
o2
o2
o2
o2
o2
n3.5
v5
v5
v5
v6
v6
o2
o2
o2
o2
o2
n3.39
v5
v5
v5
v6
v7
C4
n0
C5
n0
C6
n0
C7
n0
C8
n0
O0 0
o54
64
o2
o2
n9.45
v1
v2
o2
o2
n8.29
v3
v6
o2
o2
o2
n8.82
v0
v0
v7
o2
o2
o2
n5.96
v2
v2
v2
o2
o2
o2
n7.73
v2
v4
v7
o2
o2
o2
n0.11
v6
v7
v7
o2
o2
o2
o2
n6.15
v0
v0
v3
v5
o2
o2
o2
o2
n7.43
v0
v0
v4
v5
o2
o2
o2
o2
n8.19
v0
v0
v6
v6
o2
o2
o2
o2
n8.5
v0
v1
v1
v3
o2
o2
o2
o2
n0.34
v0
v1
v1
v5
o2
o2
o2
o2
n4.09
v0
v1
v2
v2
o2
o2
o2
o2
n1.01
v0
v1
v2
v5
o2
o2
o2
o2
n3.62
v0
v1
v3
v3
o2
o2
o2
o2
n9.22
v0
v2
v3
v6
o2
o2
o2
o2
n6.09
v0
v3
v3
v6
o2
o2
o2
o2
n5.33
v0
v3
v6
v6
o2
o2
o2
o2
n8.73
v0
v7
v7
v7
o2
o2
o2
o2
n1.46
v1
v1
v1
v5
o2
o2
o2
o2
n3.75
v1
v1
v3
v3
o16
o2
o2
o2
o2
n4.6
v1
v1
v4
v7
o2
o2
o2
o2
n8.44
v2
v4
v5
v5
o2
o2
o2
o2
n0.07
v2
v6
v6
v6
o2
o2
o2
o2
n8.93
v3
v7
v7
v7
o2
o2
o2
o2
n8.2
v4
v6
v6
v6
o2
o2
o2
o2
n3.06
v6
v7
v7
v7
o16
o2
o2
o2
o2
o2
n2.11
v0
v0
v0
v0
v5
o16
o2
o2
o2
o2
o2
n2.47
v0
v0
v0
v4
v7
o2
o2
o2
o2
o2
n9.25
v0
v0
v0
v5
v7
o2
o2
o2
o2
o2
n9.32
v0
v0
v1
v6
v6
o2
o2
o2
o2
o2
n4.68
v0
v0
v5
v6
v7
o16
o2
o2
o2
o2
o2
n8.05
v0
v1
v1
v2
v5
o2
o2
o2
o2
o2
n8.76
v0
v1
v2
v2
v2
o2
o2
o2
o2
o2
n7.25
v0
v1
v2
v3
v4
o2
o2
o2
o2
o2
n7.16
v0
v1
v2
v5
v6
o2
o2
o2
o2
o2
n2.21
v0
v1
v3
v4
v6
o2
o2
o2
o2
o2
n5.95
v0
v1
v4
v5
v5
o2
o2
o2
o2
o2
n3.33
v0
v2
v3
v3
v7
o16
o2
o2
o2
o2
o2
n9.63
v0
v2
v4
v7
v7
o2
o2
o2
o2
o2
n0.64
v0
v3
v5
v5
v6
o2
o2
o2
o2
o2
n4.85
v0
v3
v5
v6
v7
o2
o2
o2
o2
o2
n9.94
v0
v5
v6
v6
v6
o2
o2
o2
o2
o2
n7.67
v1
v1
v1
v1
v4
o2
o2
o2
o2
o2
n0.7
v1
v1
v2
v2
v4
o2
o2
o2
o2
o2
n7.19
v1
v1
v2
v5
v7
o2
o2
o2
o2
o2
n1.03
v1
v1
v5
v7
v7
o2
o2
o2
o2
o2
n3.29
v1
v1
v7
v7
v7
o2
o2
o2
o2
o2
n0.23
v1
v2
v3
v4
v7
o2
o2
o2
o2
o2
n1.44
v1
v3
v5
v5
v7
o2
o2
o2
o2
o2
n3.98
v1
v3
v5
v7
v7
o2
o2
o2
o2
o2
n2.16
v1
v4
v5
v5
v5
o2
o2
o2
o2
o2
n2.61
v2
v2
v2
v3
v3
o2
o2
o2
o2
o2
n8.22
v2
v2
v3
v4
v6
o2
o2
o2
o2
o2
n7.81
v2
v3
v3
v5
v6
o2
o2
o2
o2
o2
n7.11
v2
v3
v4
v4
v6
o2
o2
o2
o2
o2
n7.97
v2
v3
v4
v6
v7
o2
o2
o2
o2
o2
n1.86
v2
v4
v5
v5
v6
o2
o2
o2
o2
o2
n7.58
v2
v5
v5
v5
v5
o2
o2
o2
o2
o2
n7.82
v3
v3
v3
v3
v7
o2
o2
o2
o2
o2
n0.84
v3
v3
v3
v5
v5
o2
o2
o2
o2
o2
n8.29
v3
v4
v6
v6
v7
o16
o2
o2
o2
o2
o2
n5.05
v4
v5
v6
v6
v7
o2
o2
o2
o2
o2
n6.84
v5
v5
v5
v6
v6
o2
o2
o2
o2
o2
n3.84
v5
v5
v5
v6
v7
k7
8
14
20
27
34
42
49
J0 8
0 3.24
1 6.36
2 0.32
3 0.65
4 6.93
5 7.58
6 0.82
7 4.06
J1 8
0 7.36
1 4.89
2 7
3 2.6
4 4.09
5 7.27
6 4.52
7 0.42
J2 8
0 3.76
1 8.5
2 4.09
3 9.26
4 9.21
5 1.22
6 8.27
7 7.9
J3 8
0 8.56
1 3.12
2 2.74
3 8.2
4 4.41
5 8.98
6 3.33
7 0.46
J4 4
1 2.69
4 1.79
5 -8.65
6 0.81
J5 4
0 2.4
2 3.94
3 7.91
5 0.11
J6 4
0 2.11
4 1.62
6 1.89
7 5.61
J7 4
0 0.18
3 9.19
5 5.29
7 2.12
J8 8
0 4.88
1 2.18
2 3.54
3 5.27
4 5.34
5 8.17
6 0.8
7 4.53
G0 8
0 5.17
1 4.42
2 0.65
3 5.08
4 3.03
5 4.17
6 -4.16
7 4.72
